RT is False
Default write of storage_offers_DA.csv just to have a file (but constraint should be inactive)
Reading model...
...model read.
creating competitive generators file...
...competitive generators recorded.
Loading data...
.. day-ahead data with real-time VRE data read.
Compiling instance...
...instance created.
Creating Offer Mitigation (model will solve as dispatch if TRUE)...
Solving...

Welcome to IBM(R) ILOG(R) CPLEX(R) Interactive Optimizer 12.8.0.0
  with Simplex, Mixed Integer & Barrier Optimizers
5725-A06 5725-A29 5724-Y48 5724-Y49 5724-Y54 5724-Y55 5655-Y21
Copyright IBM Corp. 1988, 2017.  All Rights Reserved.

Type 'help' for a list of available commands.
Type 'help' followed by a command name for more
information on commands.

CPLEX> Logfile 'cplex.log' closed.
Logfile 'C:\Users\llavi\Desktop\test919\logs\tmp7dbcvd7y.cplex.log' open.
CPLEX> New value for parallel optimization mode: -1
CPLEX> New value for mixed integer optimality gap tolerance: 0.01
CPLEX> New value for integrality tolerance: 1e-09
CPLEX> New value for feasibility tolerance: 0.01
CPLEX> New value for deterministic time limit in ticks: 75000
CPLEX> Problem 'C:\Users\llavi\Desktop\test919\logs\tmpdz6_qjaz.pyomo.lp' read.
Read time = 0.16 sec. (3.03 ticks)
CPLEX> Problem name         : C:\Users\llavi\Desktop\test919\logs\tmpdz6_qjaz.pyomo.lp
Objective sense      : Minimize
Variables            :   26465  [Nneg: 1,  Box: 22000,  Free: 4464]
Objective nonzeros   :    2496
Linear constraints   :   27515  [Less: 14006,  Greater: 4416,  Equal: 9093]
  Nonzeros           :   89171
  RHS nonzeros       :   12276

Variables            : Min LB: -5000.000        Max UB: 1000000.       
Objective nonzeros   : Min   : 15.73158         Max   : 124.0997       
Linear constraints   :
  Nonzeros           : Min   : 0.8500000        Max   : 3000.000       
  RHS nonzeros       : Min   : 0.008333333      Max   : 5000.000       
CPLEX> CPXPARAM_Simplex_Tolerances_Feasibility          0.01
CPXPARAM_Parallel                                -1
CPXPARAM_DetTimeLimit                            75000
CPXPARAM_MIP_Tolerances_MIPGap                   0.01
CPXPARAM_MIP_Tolerances_Integrality              1.0000000000000001e-09
Parallel mode: opportunistic, using up to 4 threads for concurrent optimization.
Tried aggregator 1 time.
LP Presolve eliminated 21401 rows and 15889 columns.
Aggregator did 717 substitutions.
Reduced LP has 5397 rows, 9859 columns, and 31787 nonzeros.
Presolve time = 0.14 sec. (22.46 ticks)

Iteration log . . .
Iteration:     1   Dual objective     =             0.000000
Perturbation started.
Iteration:   101   Dual objective     =             0.000000
Iteration:   364   Dual objective     =             1.306882
Iteration:   660   Dual objective     =             1.933229
Iteration:   950   Dual objective     =             2.077267
Iteration:  1140   Dual objective     =             2.191356
Iteration:  1494   Dual objective     =             2.252114
Iteration:  1792   Dual objective     =             2.280118
Iteration:  2089   Dual objective     =             2.305530
Iteration:  2395   Dual objective     =          3424.001631
Iteration:  2705   Dual objective     =          3424.013139
Iteration:  3069   Dual objective     =          3424.025507
Iteration:  3486   Dual objective     =         10163.972895
Iteration:  3821   Dual objective     =         58275.565476
Iteration:  4168   Dual objective     =         71397.219024
Removing perturbation.

Dual simplex solved model.


Dual simplex - Optimal:  Objective =  7.2607869712e+04
Solution time =    0.30 sec.  Iterations = 4492 (0)
Deterministic time = 96.20 ticks  (323.89 ticks/sec)

CPLEX> Solution written to file 'C:\Users\llavi\Desktop\test919\logs\tmpjjjc5ll2.cplex.sol'.
CPLEX> Exporting results... 
...storage offer mitigation file created
Converting model to MPEC...
...converted
NOTE: initial MIP solve with only storage competitive to get feasible solution
Solving...

Welcome to IBM(R) ILOG(R) CPLEX(R) Interactive Optimizer 12.8.0.0
  with Simplex, Mixed Integer & Barrier Optimizers
5725-A06 5725-A29 5724-Y48 5724-Y49 5724-Y54 5724-Y55 5655-Y21
Copyright IBM Corp. 1988, 2017.  All Rights Reserved.

Type 'help' for a list of available commands.
Type 'help' followed by a command name for more
information on commands.

CPLEX> Logfile 'cplex.log' closed.
Logfile 'C:\Users\llavi\Desktop\test919\logs\tmp3609flta.cplex.log' open.
CPLEX> New value for parallel optimization mode: -1
CPLEX> New value for mixed integer optimality gap tolerance: 0.01
CPLEX> New value for integrality tolerance: 1e-09
CPLEX> New value for feasibility tolerance: 0.01
CPLEX> New value for deterministic time limit in ticks: 75000
CPLEX> Problem 'C:\Users\llavi\Desktop\test919\logs\tmpdpz725df.pyomo.lp' read.
Read time = 0.66 sec. (13.96 ticks)
CPLEX> Problem name         : C:\Users\llavi\Desktop\test919\logs\tmpdpz725df.pyomo.lp
Objective sense      : Maximize
Variables            :   53805  [Nneg: 1,  Box: 22000,  Free: 4464,
                                 Binary: 27340]
Objective nonzeros   :    9083
Linear constraints   :  123205  [Less: 41346,  Greater: 59096,  Equal: 22763]
  Nonzeros           :  291710
  RHS nonzeros       :   67432

Variables            : Min LB: -5000.000        Max UB: 1000000.       
Objective nonzeros   : Min   : 0.008333333      Max   : 2500.000       
Linear constraints   :
  Nonzeros           : Min   : 0.008333333      Max   : 1000000.       
  RHS nonzeros       : Min   : 0.008333333      Max   : 1000000.       
CPLEX> CPXPARAM_Simplex_Tolerances_Feasibility          0.01
CPXPARAM_Parallel                                -1
CPXPARAM_DetTimeLimit                            75000
CPXPARAM_MIP_Tolerances_MIPGap                   0.01
CPXPARAM_MIP_Tolerances_Integrality              1.0000000000000001e-09
Tried aggregator 3 times.
MIP Presolve eliminated 88611 rows and 18965 columns.
MIP Presolve added 3362 rows and 0 columns.
MIP Presolve modified 23910 coefficients.
Aggregator did 12972 substitutions.
Reduced MIP has 24984 rows, 21318 columns, and 71215 nonzeros.
Reduced MIP has 8439 binaries, 0 generals, 0 SOSs, and 0 indicators.
Presolve time = 0.44 sec. (165.37 ticks)
Probing fixed 406 vars, tightened 2903 bounds.
Probing time = 5.05 sec. (896.48 ticks)
Tried aggregator 2 times.
MIP Presolve eliminated 916 rows and 813 columns.
MIP Presolve modified 2240 coefficients.
Aggregator did 40 substitutions.
Reduced MIP has 24028 rows, 20465 columns, and 68445 nonzeros.
Reduced MIP has 8033 binaries, 0 generals, 0 SOSs, and 0 indicators.
Presolve time = 0.25 sec. (56.01 ticks)
Probing time = 0.08 sec. (14.77 ticks)
Clique table members: 6504.
MIP emphasis: balance optimality and feasibility.
MIP search method: dynamic search.
Parallel mode: opportunistic, using up to 4 threads.
Root relaxation solution time = 0.81 sec. (431.95 ticks)

        Nodes                                         Cuts/
   Node  Left     Objective  IInf  Best Integer    Best Bound    ItCnt     Gap

      0     0        0.0000   661                      0.0000     2752         
*     0     0      integral     0        0.0000        0.0000     2752    0.00%
Elapsed time = 12.33 sec. (2679.54 ticks, tree = 0.01 MB, solutions = 1)

Root node processing (before b&c):
  Real time             =   12.36 sec. (2681.81 ticks)
Parallel b&c, 4 threads:
  Real time             =    0.00 sec. (0.00 ticks)
  Sync time (average)   =    0.00 sec.
  Wait time (average)   =    0.00 sec.
                          ------------
Total (root+branch&cut) =   12.36 sec. (2681.81 ticks)

Solution pool: 1 solution saved.

MIP - Integer optimal solution:  Objective =  9.6406438388e-10
Solution time =   12.36 sec.  Iterations = 2752  Nodes = 0
Deterministic time = 2681.97 ticks  (216.99 ticks/sec)

CPLEX> Incumbent solution written to file 'C:\Users\llavi\Desktop\test919\logs\tmpc67y4tkv.cplex.sol'.
CPLEX> NOTE: no warmstart specified for MIP iteration, default behavior is true
NOTE: resolving with all competitive generators using storage-only solution to warmstart
Solving...

Welcome to IBM(R) ILOG(R) CPLEX(R) Interactive Optimizer 12.8.0.0
  with Simplex, Mixed Integer & Barrier Optimizers
5725-A06 5725-A29 5724-Y48 5724-Y49 5724-Y54 5724-Y55 5655-Y21
Copyright IBM Corp. 1988, 2017.  All Rights Reserved.

Type 'help' for a list of available commands.
Type 'help' followed by a command name for more
information on commands.

CPLEX> Logfile 'cplex.log' closed.
Logfile 'C:\Users\llavi\Desktop\test919\logs\tmpj_4_u_7g.cplex.log' open.
CPLEX> New value for parallel optimization mode: -1
CPLEX> New value for mixed integer optimality gap tolerance: 0.01
CPLEX> New value for integrality tolerance: 1e-09
CPLEX> New value for feasibility tolerance: 0.01
CPLEX> New value for deterministic time limit in ticks: 75000
CPLEX> Problem 'C:\Users\llavi\Desktop\test919\logs\tmpwv063451.pyomo.lp' read.
Read time = 0.58 sec. (13.98 ticks)
CPLEX> MIP start file 'C:\Users\llavi\Desktop\test919\logs\tmpthrzdb_7.cplex.mst' read.
CPLEX> Problem name         : C:\Users\llavi\Desktop\test919\logs\tmpwv063451.pyomo.lp
Objective sense      : Maximize
Variables            :   54525  [Nneg: 1,  Box: 22720,  Free: 4464,
                                 Binary: 27340]
Objective nonzeros   :    9779
Linear constraints   :  123205  [Less: 41346,  Greater: 59096,  Equal: 22763]
  Nonzeros           :  291710
  RHS nonzeros       :   67432

Variables            : Min LB: -5000.000        Max UB: 1000000.       
Objective nonzeros   : Min   : 0.008333333      Max   : 2500.000       
Linear constraints   :
  Nonzeros           : Min   : 0.008333333      Max   : 1000000.       
  RHS nonzeros       : Min   : 0.008333333      Max   : 1000000.       
CPLEX> CPXPARAM_Simplex_Tolerances_Feasibility          0.01
CPXPARAM_Parallel                                -1
CPXPARAM_DetTimeLimit                            75000
CPXPARAM_MIP_Tolerances_MIPGap                   0.01
CPXPARAM_MIP_Tolerances_Integrality              1.0000000000000001e-09
Warning:  No solution found from 1 MIP starts.
Retaining values of one MIP start for possible repair.
Tried aggregator 3 times.
MIP Presolve eliminated 88611 rows and 19685 columns.
MIP Presolve added 3362 rows and 0 columns.
MIP Presolve modified 23910 coefficients.
Aggregator did 12972 substitutions.
Reduced MIP has 24984 rows, 21318 columns, and 71215 nonzeros.
Reduced MIP has 8439 binaries, 0 generals, 0 SOSs, and 0 indicators.
Presolve time = 0.44 sec. (165.73 ticks)
Probing fixed 406 vars, tightened 2903 bounds.
Probing time = 5.33 sec. (896.48 ticks)
Tried aggregator 2 times.
MIP Presolve eliminated 916 rows and 813 columns.
MIP Presolve modified 2240 coefficients.
Aggregator did 40 substitutions.
Reduced MIP has 24028 rows, 20465 columns, and 68445 nonzeros.
Reduced MIP has 8033 binaries, 0 generals, 0 SOSs, and 0 indicators.
Presolve time = 0.20 sec. (56.00 ticks)
Probing time = 0.08 sec. (14.77 ticks)
Clique table members: 6504.
MIP emphasis: balance optimality and feasibility.
MIP search method: dynamic search.
Parallel mode: opportunistic, using up to 4 threads.
Root relaxation solution time = 0.61 sec. (196.65 ticks)

        Nodes                                         Cuts/
   Node  Left     Objective  IInf  Best Integer    Best Bound    ItCnt     Gap

      0     0   160598.7810  1731                 160598.7810     2764         
      0     0   156803.3915   673                   Cuts: 759     3168         
      0     0   156177.8728   583                   Cuts: 338     3341         
      0     0   155891.1994   544                   Cuts: 195     3414         
      0     0   155795.0625   516                    Cuts: 94     3473         
      0     0   154339.1870   495                    Cuts: 89     3541         
      0     0   153951.7879   485                   Cuts: 100     3589         
      0     0   153893.8779   487                    Cuts: 78     3621         
      0     0   153893.8779   483                    Cuts: 65     3637         
      0     0   153889.7378   466                    Cuts: 62     3653         
      0     0   153889.7378   465                    Cuts: 59     3663         
Repair heuristic found nothing.
      0     2   142945.7824   457                 136235.6369     3663         
Elapsed time = 63.05 sec. (15102.32 ticks, tree = 0.02 MB, solutions = 0)
     43    16   123570.8389   414                 136235.6369     4253         
    124    38    infeasible                       136235.6369     6546         
    199    93    50367.0423   299                 136235.6369     8147         
    267   133    infeasible                       136235.6369     8991         
    311   164     6722.2338   301                 136235.6369    10039         
    409   219     6195.5212   273                 136235.6369    10950         
    485   303    10937.1952   290                 136235.6369    11395         
    567   386    10215.2351   263                 136235.6369    11762         
    671   416     2304.4141   172                 136235.6369    11792         
   1273  1064     9692.7766   205                 136235.6369    12186         
Elapsed time = 72.89 sec. (18222.14 ticks, tree = 9.50 MB, solutions = 0)
*  1444   975      integral     0   -23189.2486   136235.6369    12180  687.49%
   1614  1181    31358.2571   323   -23189.2486   136235.6369    15712  687.49%
   1956  1227    22101.0189   317   -23189.2486   136235.6369    18043  687.49%
   2370  1491    15634.0823   267   -23189.2486   136235.6369    20129  687.49%
   2542  1923        cutoff         -23189.2486    29482.2830    29114  227.14%
   2692    91     9667.8428    67   -23189.2486    26834.2443    30337  215.72%
   2967   166    19490.2525    84   -23189.2486    26340.5898    31475  213.59%
   3197   319     6446.2032    69   -23189.2486    26078.4909    33477  212.46%
   3416   622     -277.2957    78   -23189.2486    26075.3721    36602  212.45%
   3688   738        cutoff         -23189.2486    25687.5115    39017  210.77%
Elapsed time = 138.56 sec. (34274.45 ticks, tree = 6.44 MB, solutions = 1)
   3949   782     4882.4191    68   -23189.2486    25517.0455    39955  210.04%
   4218  1162        cutoff         -23189.2486    25517.0455    42877  210.04%
   4299  1214   -10471.0468    17   -23189.2486    25517.0455    44922  210.04%
   4527  1303    -2996.9116    92   -23189.2486    24295.0376    47076  204.77%
   4728  1269    -3378.6022    29   -23189.2486    24295.0376    46260  204.77%
   4883  1272        cutoff         -23189.2486    24295.0376    46266  204.77%
   4923  1404    -5471.7946    15   -23189.2486    24295.0376    48051  204.77%
   5017  1679    -6186.4574    46   -23189.2486    24295.0376    50846  204.77%
   5112  1730   -21551.6946     3   -23189.2486    24295.0376    51492  204.77%
   5259  1814   -14930.9503    63   -23189.2486    24295.0376    51965  204.77%
Elapsed time = 170.22 sec. (44172.45 ticks, tree = 15.09 MB, solutions = 1)
   5375  1885    -5403.4384    61   -23189.2486    24295.0376    52608  204.77%
   5470  2124     1497.6508    62   -23189.2486    24295.0376    54613  204.77%
   5541  2185    -1114.5125     9   -23189.2486    24295.0376    55177  204.77%
   5557  2187        cutoff         -23189.2486    24295.0376    55195  204.77%
   5584  1752        cutoff         -23189.2486    24295.0376    51288  204.77%
   5646  2226    -1114.5125    11   -23189.2486    24295.0376    55471  204.77%
   5673  1770        cutoff         -23189.2486    24295.0376    51288  204.77%
   5685  1742        cutoff         -23189.2486    24295.0376    51220  204.77%
   5697  1781        cutoff         -23189.2486    24295.0376    51372  204.77%
   5710  2114        cutoff         -23189.2486    24295.0376    54342  204.77%
Elapsed time = 188.34 sec. (55470.87 ticks, tree = 17.92 MB, solutions = 1)
   5720  2115        cutoff         -23189.2486    24295.0376    54348  204.77%
   5736  2113    -3387.4015    25   -23189.2486    24295.0376    54340  204.77%
   5744  2118        cutoff         -23189.2486    24295.0376    54370  204.77%
   5754  2119        cutoff         -23189.2486    24295.0376    54377  204.77%
   5764  2120        cutoff         -23189.2486    24295.0376    54388  204.77%
   5776  2117        cutoff         -23189.2486    24295.0376    54372  204.77%
   5786  2117        cutoff         -23189.2486    24295.0376    54382  204.77%
   5795  2256    -1114.5125    11   -23189.2486    24295.0376    55755  204.77%
   5807  2121        cutoff         -23189.2486    24295.0376    54450  204.77%
   5817  2265    -1114.5125    11   -23189.2486    24295.0376    55816  204.77%
Elapsed time = 198.48 sec. (66270.57 ticks, tree = 19.25 MB, solutions = 1)
   5826  2265        cutoff         -23189.2486    24295.0376    55819  204.77%
   5836  2266        cutoff         -23189.2486    24295.0376    55824  204.77%
   5846  2252        cutoff         -23189.2486    24295.0376    55747  204.77%
   5853  2254        cutoff         -23189.2486    24295.0376    55738  204.77%
   5867  2258        cutoff         -23189.2486    24295.0376    55768  204.77%
   5876  2258        cutoff         -23189.2486    24295.0376    55770  204.77%
   5880  2255        cutoff         -23189.2486    24295.0376    55765  204.77%
   5895  2256        cutoff         -23189.2486    24295.0376    55773  204.77%

GUB cover cuts applied:  7
Clique cuts applied:  17
Cover cuts applied:  65
Implied bound cuts applied:  39
Flow cuts applied:  2186
Mixed integer rounding cuts applied:  306
Gomory fractional cuts applied:  108

Root node processing (before b&c):
  Real time             =   62.56 sec. (15058.09 ticks)
Parallel b&c, 4 threads:
  Real time             =  143.11 sec. (60518.18 ticks)
  Sync time (average)   =    1.52 sec.
  Wait time (average)   =    0.04 sec.
                          ------------
Total (root+branch&cut) =  205.67 sec. (75576.26 ticks)

Solution pool: 1 solution saved.

MIP - Deterministic time limit exceeded, integer feasible:  Objective = -2.3189248553e+04
Current MIP best bound =  2.4295037577e+04 (gap = 47484.3, 204.77%)
Solution time =  205.67 sec.  Iterations = 55877  Nodes = 5896 (2279)
Deterministic time = 75576.42 ticks  (367.46 ticks/sec)

CPLEX> Incumbent solution written to file 'C:\Users\llavi\Desktop\test919\logs\tmpil12vhhl.cplex.sol'.
CPLEX> Exporting results... 
